
Gurobi 11.0.0 (win64) logging started Thu May  9 15:57:41 2024

Set parameter LogFile to value "./Results/StripPacking-StaticBoundRuns/Logs/SBuM-010-StripPacking-10.log"
Set parameter TimeLimit to value 10800
Set parameter Cuts to value 0
Set parameter Presolve to value 1
Set parameter Heuristics to value 0
Set parameter LPWarmStart to value 2
Gurobi Optimizer version 11.0.0 build v11.0.0rc2 (win64 - Windows 10.0 (19045.2))

CPU model: Intel(R) Core(TM) i9-10980XE CPU @ 3.00GHz, instruction set [SSE2|AVX|AVX2|AVX512]
Thread count: 18 physical cores, 36 logical processors, using up to 18 threads

Optimize a model with 460 rows, 156 columns and 1370 nonzeros
Model fingerprint: 0x0ea8ea8b
Variable types: 66 continuous, 90 integer (90 binary)
Coefficient statistics:
  Matrix range     [1e+00, 1e+04]
  Objective range  [1e+00, 1e+00]
  Bounds range     [1e+00, 1e+04]
  RHS range        [1e+00, 1e+04]

User MIP start produced solution with objective 50 (0.00s)
Loaded user MIP start with objective 50

Presolve removed 135 rows and 0 columns
Presolve time: 0.00s
Presolved: 325 rows, 156 columns, 1055 nonzeros
Variable types: 66 continuous, 90 integer (90 binary)

Root relaxation: objective 3.500000e+01, 45 iterations, 0.00 seconds (0.00 work units)

    Nodes    |    Current Node    |     Objective Bounds      |     Work
 Expl Unexpl |  Obj  Depth IntInf | Incumbent    BestBd   Gap | It/Node Time

     0     0   35.00000    0    4   50.00000   35.00000  30.0%     -    0s
     0     0   35.00000    0    4   50.00000   35.00000  30.0%     -    0s
     0     2   35.00000    0    4   50.00000   35.00000  30.0%     -    0s
*  723   897              36      49.0000000   35.00000  28.6%   4.6    0s
*  818   897              34      48.0000000   35.00000  27.1%   4.5    0s
*  822   897              36      45.0000000   35.00000  22.2%   4.5    0s
* 5454  2051              24      44.0000000   35.00000  20.5%   3.8    0s
* 5456  1960              25      43.0000000   35.00000  18.6%   3.8    0s
* 5648  1882              27      41.0000000   35.00000  14.6%   3.9    0s
* 6463  1638              27      40.0000000   35.00000  12.5%   4.6    0s
* 6761  1500              31      39.0000000   35.00000  10.3%   4.8    0s

Explored 14350 nodes (90714 simplex iterations) in 0.30 seconds (0.17 work units)
Thread count was 18 (of 36 available processors)

Solution count 9: 39 40 41 ... 50

Optimal solution found (tolerance 1.00e-04)
Best objective 3.900000000000e+01, best bound 3.900000000000e+01, gap 0.0000%
